 UU:0   UU:1   VV:0   VV:1   S11   S22   S12   S33   EEQ   EP11   EP22   GP12   EP33   vtkValidPointMask   arc_length   Points:0   Points:1   Points:2 
-6.81841e-03 0.00000e+00 -2.20778e+01 0.00000e+00 7.29481e+08 3.75592e+08 -1.33361e+07 4.54188e+08 1.31947e-03 1.31442e-03 -7.01091e-04 -4.59346e-07 -6.13331e-04 1 0.00000e+00 0.00000e+00 0.00000e+00 0.00000e+00
-6.39935e-03 -5.32895e-20 -2.26407e+01 -2.11620e-16 7.29481e+08 3.75592e+08 -1.33361e+07 4.54188e+08 1.31947e-03 1.31442e-03 -7.01091e-04 -4.59346e-07 -6.13331e-04 1 1.11111e-01 1.11111e-01 0.00000e+00 0.00000e+00
-5.94829e-03 -3.52566e-19 -2.24386e+01 -1.69470e-15 8.57031e+08 4.38054e+08 -2.52667e+07 5.01324e+08 1.22486e-03 1.22005e-03 -6.56062e-04 -7.46726e-06 -5.63992e-04 1 2.22222e-01 2.22222e-01 0.00000e+00 0.00000e+00
-5.53983e-03 0.00000e+00 -2.29244e+01 0.00000e+00 7.55950e+08 3.63514e+08 -1.91970e+07 4.44361e+08 1.19797e-03 1.19247e-03 -6.49867e-04 -2.80699e-05 -5.42608e-04 1 3.33333e-01 3.33333e-01 0.00000e+00 0.00000e+00
-5.06935e-03 -1.16039e-19 -2.11165e+01 -4.23869e-16 8.35828e+08 3.80558e+08 -1.11641e+07 4.81915e+08 1.38778e-03 1.37581e-03 -7.90811e-04 -3.92230e-05 -5.84995e-04 1 4.44444e-01 4.44444e-01 0.00000e+00 0.00000e+00
-4.62926e-03 -3.24788e-20 -2.09116e+01 6.35126e-16 7.46994e+08 2.85677e+08 -3.94255e+06 4.22076e+08 1.37616e-03 1.36190e-03 -8.00522e-04 -1.73055e-05 -5.61374e-04 1 5.55556e-01 5.55556e-01 0.00000e+00 0.00000e+00
-4.14231e-03 8.34765e-20 -1.88332e+01 1.69425e-15 7.72822e+08 3.03421e+08 3.89191e+06 4.42886e+08 1.67447e-03 1.64170e-03 -1.04163e-03 1.19270e-05 -6.00067e-04 1 6.66667e-01 6.66667e-01 0.00000e+00 0.00000e+00
-3.68938e-03 7.42071e-20 -1.83551e+01 4.23747e-16 6.97706e+08 2.24966e+08 9.44567e+06 3.87581e+08 1.55079e-03 1.52017e-03 -9.66271e-04 3.52412e-05 -5.53896e-04 1 7.77778e-01 7.77778e-01 0.00000e+00 0.00000e+00
-3.21183e-03 -1.48441e-19 -1.73542e+01 -8.47473e-16 7.33289e+08 2.62934e+08 1.11451e+07 4.08442e+08 1.66645e-03 1.62350e-03 -1.07562e-03 8.08400e-05 -5.47877e-04 1 8.88889e-01 8.88889e-01 0.00000e+00 0.00000e+00
-2.78394e-03 -7.71177e-20 -1.54846e+01 -4.36890e-16 6.62523e+08 1.93914e+08 9.40746e+06 3.46620e+08 1.35610e-03 1.32045e-03 -8.72001e-04 8.17314e-05 -4.48446e-04 1 1.00000e+00 1.00000e+00 0.00000e+00 0.00000e+00
-2.38059e-03 5.70357e-20 -1.46101e+01 2.18340e-16 6.40865e+08 1.75218e+08 7.87631e+06 3.21987e+08 1.19410e-03 1.16035e-03 -7.74542e-04 8.23532e-05 -3.85812e-04 1 1.11111e+00 1.11111e+00 0.00000e+00 0.00000e+00
-2.02668e-03 -2.32068e-20 -1.22058e+01 2.11640e-16 5.85564e+08 1.23993e+08 1.17705e+07 2.70140e+08 8.68416e-04 8.43943e-04 -5.57580e-04 6.52728e-05 -2.86363e-04 1 1.22222e+00 1.22222e+00 0.00000e+00 0.00000e+00
-1.74398e-03 -1.20616e-19 -1.10824e+01 -1.69451e-15 5.09764e+08 5.45293e+07 1.90082e+07 2.01441e+08 3.76471e-04 3.72617e-04 -2.11855e-04 2.05111e-05 -1.60763e-04 1 1.33333e+00 1.33333e+00 0.00000e+00 0.00000e+00
-1.47918e-03 -1.06672e-19 -1.23740e+01 -1.05910e-15 5.20972e+08 9.98365e+07 2.06690e+07 2.08021e+08 2.29917e-04 2.29696e-04 -1.20805e-04 8.02011e-06 -1.08891e-04 1 1.44444e+00 1.44444e+00 0.00000e+00 0.00000e+00
-1.19717e-03 3.69966e-20 -1.40102e+01 1.69339e-15 6.02995e+08 1.87352e+08 1.66138e+07 2.52350e+08 1.59674e-04 1.59578e-04 -8.33500e-05 4.84140e-06 -7.62282e-05 1 1.55556e+00 1.55556e+00 0.00000e+00 0.00000e+00
-9.03768e-04 -1.62327e-20 -1.50050e+01 -2.11810e-16 6.61931e+08 2.51509e+08 9.81993e+06 2.85181e+08 1.16639e-04 1.16579e-04 -6.08358e-05 3.41876e-06 -5.57429e-05 1 1.66667e+00 1.66667e+00 0.00000e+00 0.00000e+00
-6.04473e-04 2.31898e-21 -1.51762e+01 2.64758e-17 6.95977e+08 2.87275e+08 5.07222e+06 3.03516e+08 8.96701e-05 8.96186e-05 -4.69150e-05 2.73051e-06 -4.27035e-05 1 1.77778e+00 1.77778e+00 0.00000e+00 0.00000e+00
-3.26466e-04 0.00000e+00 -1.24928e+01 0.00000e+00 6.65652e+08 2.73837e+08 2.99616e+06 2.81846e+08 0.00000e+00 0.00000e+00 0.00000e+00 0.00000e+00 0.00000e+00 1 1.88889e+00 1.88889e+00 0.00000e+00 0.00000e+00
-1.36489e-04 0.00000e+00 -7.27618e+00 0.00000e+00 4.56413e+08 1.90806e+08 1.57394e+06 1.94166e+08 0.00000e+00 0.00000e+00 0.00000e+00 0.00000e+00 0.00000e+00 1 2.00000e+00 2.00000e+00 0.00000e+00 0.00000e+00
-4.45379e-05 2.02806e-21 -3.09476e+00 1.32339e-16 2.21321e+08 9.32071e+07 6.31790e+05 9.43584e+07 0.00000e+00 0.00000e+00 0.00000e+00 0.00000e+00 0.00000e+00 1 2.11111e+00 2.11111e+00 0.00000e+00 0.00000e+00
-1.14809e-05 -1.98151e-24 -9.99586e-01 -2.58555e-20 7.96483e+07 3.36762e+07 1.98039e+05 3.39973e+07 0.00000e+00 0.00000e+00 0.00000e+00 0.00000e+00 0.00000e+00 1 2.22222e+00 2.22222e+00 0.00000e+00 0.00000e+00
-2.36073e-06 4.80972e-23 -2.51656e-01 5.84142e-18 2.19864e+07 9.31783e+06 4.96222e+04 9.39127e+06 0.00000e+00 0.00000e+00 0.00000e+00 0.00000e+00 0.00000e+00 1 2.33333e+00 2.33333e+00 0.00000e+00 0.00000e+00
-3.89533e-07 4.57988e-24 -5.02041e-02 2.85131e-19 4.75351e+06 2.01751e+06 1.00293e+04 2.03131e+06 0.00000e+00 0.00000e+00 0.00000e+00 0.00000e+00 0.00000e+00 1 2.44444e+00 2.44444e+00 0.00000e+00 0.00000e+00
-5.16775e-08 2.26353e-24 -8.01136e-03 2.06778e-19 8.14870e+05 3.46197e+05 1.63981e+03 3.48320e+05 0.00000e+00 0.00000e+00 0.00000e+00 0.00000e+00 0.00000e+00 1 2.55556e+00 2.55556e+00 0.00000e+00 0.00000e+00
-5.49889e-09 0.00000e+00 -1.02645e-03 0.00000e+00 1.11389e+05 4.73567e+04 2.16722e+02 4.76237e+04 0.00000e+00 0.00000e+00 0.00000e+00 0.00000e+00 0.00000e+00 1 2.66667e+00 2.66667e+00 0.00000e+00 0.00000e+00
-4.65897e-10 0.00000e+00 -1.05442e-04 0.00000e+00 1.21410e+04 5.16437e+03 2.30509e+01 5.19160e+03 0.00000e+00 0.00000e+00 0.00000e+00 0.00000e+00 0.00000e+00 1 2.77778e+00 2.77778e+00 0.00000e+00 0.00000e+00
-3.09506e-11 0.00000e+00 -8.59891e-06 0.00000e+00 1.04925e+03 4.46490e+02 1.95577e+00 4.48721e+02 0.00000e+00 0.00000e+00 0.00000e+00 0.00000e+00 0.00000e+00 1 2.88889e+00 2.88889e+00 0.00000e+00 0.00000e+00
-6.91020e-29 -1.38155e-28 -3.15570e-24 -1.26208e-23 7.46652e+01 3.17827e+01 1.23834e-01 3.19344e+01 0.00000e+00 0.00000e+00 0.00000e+00 0.00000e+00 0.00000e+00 1 3.00000e+00 3.00000e+00 0.00000e+00 0.00000e+00
