 UU:0   UU:1   VV:0   VV:1   S11   S22   S12   S33   EEQ   EP11   EP22   GP12   EP33   vtkValidPointMask   arc_length   Points:0   Points:1   Points:2 
-1.83833e-02 9.04116e-20 -1.05516e+01 -1.69060e-15 7.37415e+08 6.28078e+08 4.35001e+05 5.32314e+08 1.31947e-03 1.31442e-03 -7.01091e-04 -4.59346e-07 -6.13331e-04 1 0.00000e+00 0.00000e+00 0.00000e+00 0.00000e+00
-1.80273e-02 -3.26712e-18 -1.34479e+01 -6.98072e-15 7.37415e+08 6.28078e+08 4.35001e+05 5.32314e+08 1.31947e-03 1.31442e-03 -7.01091e-04 -4.59346e-07 -6.13331e-04 1 1.11111e-01 1.11111e-01 0.00000e+00 0.00000e+00
-1.75764e-02 -2.07263e-18 -9.80203e+00 -3.38471e-15 8.48248e+08 4.49804e+08 1.09971e+07 5.02692e+08 1.23176e-03 1.22684e-03 -6.60460e-04 -7.92463e-06 -5.66381e-04 1 2.22222e-01 2.22222e-01 0.00000e+00 0.00000e+00
-1.70677e-02 0.00000e+00 -1.12318e+01 0.00000e+00 7.97035e+08 3.43499e+08 9.81996e+06 4.87592e+08 1.89467e-03 1.86397e-03 -1.13681e-03 -2.67953e-06 -7.27159e-04 1 3.33333e-01 3.33333e-01 0.00000e+00 0.00000e+00
-1.64505e-02 -1.18871e-18 -8.21822e+00 -2.11568e-15 8.12002e+08 3.21030e+08 9.50580e+06 5.11735e+08 2.82253e-03 2.72808e-03 -1.86895e-03 5.85917e-05 -8.59129e-04 1 4.44444e-01 4.44444e-01 0.00000e+00 0.00000e+00
-1.57259e-02 1.04503e-18 -8.74265e+00 3.17127e-15 8.36547e+08 3.36324e+08 2.90315e+06 5.38115e+08 3.82128e-03 3.63289e-03 -2.70162e-03 1.81630e-04 -9.31271e-04 1 5.55556e-01 5.55556e-01 0.00000e+00 0.00000e+00
-1.49261e-02 5.92405e-19 -7.36643e+00 2.53521e-15 8.46464e+08 3.33300e+08 4.73808e+06 5.39688e+08 4.50716e-03 4.23491e-03 -3.30611e-03 2.97633e-04 -9.28794e-04 1 6.66667e-01 6.66667e-01 0.00000e+00 0.00000e+00
-1.40849e-02 -9.71250e-19 -9.14375e+00 -8.48926e-16 8.30453e+08 3.37674e+08 1.56907e+06 5.34015e+08 5.08843e-03 4.74112e-03 -3.82323e-03 3.82088e-04 -9.17884e-04 1 7.77778e-01 7.77778e-01 0.00000e+00 0.00000e+00
-1.32276e-02 -4.63314e-19 -9.92762e+00 -2.53490e-15 7.73854e+08 2.95412e+08 6.16246e+06 4.99027e+08 5.41348e-03 5.01872e-03 -4.12749e-03 4.40149e-04 -8.91237e-04 1 8.88889e-01 8.88889e-01 0.00000e+00 0.00000e+00
-1.23894e-02 -2.53214e-19 -1.04696e+01 4.07858e-16 6.67245e+08 2.22843e+08 4.25763e+06 4.39319e+08 5.60570e-03 5.18031e-03 -4.31885e-03 4.88096e-04 -8.61462e-04 1 1.00000e+00 1.00000e+00 0.00000e+00 0.00000e+00
-1.14800e-02 5.00848e-19 -8.98677e+00 8.46923e-18 7.65225e+08 2.50605e+08 2.10441e+06 4.76422e+08 5.86073e-03 5.40765e-03 -4.54929e-03 5.16505e-04 -8.58363e-04 1 1.11111e+00 1.11111e+00 0.00000e+00 0.00000e+00
-1.05826e-02 -4.11332e-19 -9.57319e+00 -1.47942e-15 7.03027e+08 1.97730e+08 6.51956e+06 4.42471e+08 5.94019e-03 5.48436e-03 -4.62314e-03 5.38751e-04 -8.61219e-04 1 1.22222e+00 1.22222e+00 0.00000e+00 0.00000e+00
-9.68985e-03 -1.66991e-18 -1.02853e+01 -2.75079e-15 6.93279e+08 1.60818e+08 6.30032e+06 4.26501e+08 5.83173e-03 5.39132e-03 -4.53996e-03 5.42340e-04 -8.51359e-04 1 1.33333e+00 1.33333e+00 0.00000e+00 0.00000e+00
-8.85435e-03 -8.05236e-19 -1.03745e+01 -1.26981e-15 5.97187e+08 8.87641e+07 1.10883e+07 3.69137e+08 5.59644e-03 5.17808e-03 -4.36132e-03 5.13218e-04 -8.16761e-04 1 1.44444e+00 1.44444e+00 0.00000e+00 0.00000e+00
-8.03369e-03 8.02708e-19 -1.01457e+01 1.37522e-15 6.05927e+08 8.01562e+07 1.16234e+07 3.62261e+08 5.33854e-03 4.94282e-03 -4.16064e-03 4.67845e-04 -7.82179e-04 1 1.55556e+00 1.55556e+00 0.00000e+00 0.00000e+00
-7.27539e-03 7.20298e-19 -9.14711e+00 2.27112e-15 5.47796e+08 2.75008e+07 1.23260e+07 3.17391e+08 4.94772e-03 4.57901e-03 -3.85500e-03 4.17228e-04 -7.24009e-04 1 1.66667e+00 1.66667e+00 0.00000e+00 0.00000e+00
-6.53989e-03 -3.20238e-20 -8.70173e+00 9.48780e-16 5.47032e+08 2.90954e+07 1.27209e+07 3.03475e+08 4.68881e-03 4.32471e-03 -3.67153e-03 3.75593e-04 -6.53182e-04 1 1.77778e+00 1.77778e+00 0.00000e+00 0.00000e+00
-5.83772e-03 -1.47397e-18 -6.65299e+00 -2.19729e-15 5.33477e+08 1.82447e+07 1.00087e+07 2.86458e+08 4.43339e-03 4.08327e-03 -3.47856e-03 3.32491e-04 -6.04710e-04 1 1.88889e+00 1.88889e+00 0.00000e+00 0.00000e+00
-5.17744e-03 -6.11056e-21 -6.75113e+00 -2.89748e-16 4.93753e+08 -1.70585e+07 1.37000e+07 2.59741e+08 4.13612e-03 3.81454e-03 -3.23088e-03 2.89148e-04 -5.83665e-04 1 2.00000e+00 2.00000e+00 0.00000e+00 0.00000e+00
-4.53004e-03 4.47992e-19 -6.63713e+00 1.29422e-15 5.03838e+08 -5.56425e+06 1.11551e+07 2.55437e+08 3.95488e-03 3.63598e-03 -3.10620e-03 2.67931e-04 -5.29776e-04 1 2.11111e+00 2.11111e+00 0.00000e+00 0.00000e+00
-3.93698e-03 2.14558e-19 -4.71944e+00 6.20851e-16 4.40035e+08 -6.48775e+07 1.01239e+07 2.12655e+08 3.64230e-03 3.35273e-03 -2.85219e-03 2.18117e-04 -5.00536e-04 1 2.22222e+00 2.22222e+00 0.00000e+00 0.00000e+00
-3.34429e-03 2.16314e-20 -5.15400e+00 -2.90382e-16 4.53485e+08 -5.11117e+07 1.07248e+07 2.14913e+08 3.57265e-03 3.27782e-03 -2.80682e-03 2.07848e-04 -4.71004e-04 1 2.33333e+00 2.33333e+00 0.00000e+00 0.00000e+00
-2.76977e-03 -9.12654e-20 -4.15179e+00 -3.82643e-16 4.42242e+08 -6.08676e+07 9.39745e+06 2.00382e+08 3.43154e-03 3.13621e-03 -2.70636e-03 1.69543e-04 -4.29850e-04 1 2.44444e+00 2.44444e+00 0.00000e+00 0.00000e+00
-2.23553e-03 -2.69668e-19 -3.39842e+00 -9.23625e-16 3.87365e+08 -1.12649e+08 8.18134e+06 1.62305e+08 3.22832e-03 2.94637e-03 -2.54691e-03 1.39185e-04 -3.99452e-04 1 2.55556e+00 2.55556e+00 0.00000e+00 0.00000e+00
-1.68645e-03 -1.35770e-18 -2.93839e+00 -2.22874e-15 4.01511e+08 -1.00207e+08 6.13744e+06 1.67106e+08 3.32147e-03 3.00750e-03 -2.62393e-03 1.14994e-04 -3.83571e-04 1 2.66667e+00 2.66667e+00 0.00000e+00 0.00000e+00
-1.12421e-03 1.05876e-18 -2.15200e+00 2.32410e-15 4.03409e+08 -9.98452e+07 4.35542e+06 1.61639e+08 3.42240e-03 3.08373e-03 -2.73089e-03 7.07631e-05 -3.52847e-04 1 2.77778e+00 2.77778e+00 0.00000e+00 0.00000e+00
-5.69046e-04 -3.03778e-19 -9.83879e-01 -5.29090e-16 3.78144e+08 -1.25241e+08 1.19448e+06 1.44190e+08 3.45046e-03 3.08230e-03 -2.74070e-03 6.82465e-05 -3.41597e-04 1 2.88889e+00 2.88889e+00 0.00000e+00 0.00000e+00
-2.73368e-18 1.78801e-20 -6.76510e-15 -1.29230e-17 3.87160e+08 -1.16714e+08 -5.89308e+05 1.79129e+08 3.66473e-03 3.23822e-03 -2.74824e-03 2.47389e-05 -4.89976e-04 1 3.00000e+00 3.00000e+00 0.00000e+00 0.00000e+00
